proyfinal/src/viki/013/experimentInOfficeAgust.take6.output/056a992f-a1c8-4889-ace4-cbf6969b7d4a.als.out
Reading from standard input... Use '--help' for help.
============================[ Problem Statistics ]=============================
|                                                                             |
|  Number of variables:         87638                                         |
|  Number of clauses:          161767                                         |
|  Parse time:                   0.04 s                                       |
|                                                                             |
============================[ Search Statistics ]==============================
| Conflicts |          ORIGINAL         |          LEARNT          | Progress |
|           |    Vars  Clauses Literals |    Limit  Clauses Lit/Cl |          |
===============================================================================
|       100 |   62658   106215   265431 |    38945      100     47 | 28.504 % |
|       250 |   62658   106215   265431 |    42840      250     44 | 28.504 % |
|       475 |   62658   106215   265431 |    47124      475     54 | 28.504 % |
|       812 |   62658   106215   265431 |    51836      812     60 | 28.504 % |
|      1318 |   62658   106215   265431 |    57020     1318     68 | 28.504 % |
|      2077 |   62658   106215   265431 |    62722     2077     64 | 28.504 % |
|      3216 |   62602   105999   264890 |    68994     3201     66 | 28.568 % |
|      4924 |   62601   105955   264800 |    75893     4905     70 | 28.569 % |
|      7486 |   62577   105855   264571 |    83483     7465     68 | 28.596 % |
|     11330 |   62577   105855   264571 |    91831    11309     74 | 28.596 % |
===============================================================================
restarts              : 63
conflicts             : 16525          (6780 /sec)
decisions             : 56064          (0.00 % random) (23001 /sec)
propagations          : 25206476       (10341229 /sec)
conflict literals     : 1520805        (48.51 % deleted)
Memory used           : 39.50 MB
CPU time              : 2.43747 s

INDETERMINATE
